Route #1: 27 35 40 18 38 6
Route #2: 44 26 10 49 29 46 8
Route #3: 5 3 41 11 24 7 22 28
Route #4: 39 14 13 52 34 21
Route #5: 20 36 23 19 15 32 16 2 37 12 25
Route #6: 1 30 50 43 42 48 45
Route #7: 31 51 9 17 47 4 33
cost 1272.688232421875